33 33
23
3 3   6 0 
3 4   22 15
3 5   13 24
3 6   17 10
3 7   11 1 
3 8   13 16
3 9   19 18
3 10  8 8 
3 13  18 15
3 14  7 18
3 15  14 1 
3 17  20 0 
3 24  4 9 
3 30  0 2 
3 33  30 0 
4 3   1 29
4 4   20 7 
4 6   5 2 
10 4   10 29
4 12  0 2 
4 14  15 0 
4 17  0 16
7 33  23 0 
